\ Model Master Problem
\ LP format - for model browsing. Use MPS format to capture full model detail.
Minimize
  - 2583.509402332593 y[1,1] - 2583.104305794639 y[2,1]
   - 2569.656328296397 y[3,1] - 2608.717455086984 y[4,1]
   - 2606.827004576163 y[5,1] - 2577.396127303771 y[6,1]
   + 9.31914e-06 tp[1,1] + 9.31914e-06 tp[1,2] + 9.31914e-06 tp[1,3]
   + 9.31914e-06 tp[1,4] + 9.31914e-06 tp[1,5] + 9.31914e-06 tp[1,6]
   + 9.31914e-06 tp[1,7] + 9.31914e-06 tp[1,8] + 9.31914e-06 tp[1,9]
   + 9.31914e-06 tp[1,10] + 9.31914e-06 tp[1,11] + 9.31914e-06 tp[1,12]
   + 9.31914e-06 tp[2,1] + 9.31914e-06 tp[2,2] + 9.31914e-06 tp[2,3]
   + 9.31914e-06 tp[2,4] + 9.31914e-06 tp[2,5] + 9.31914e-06 tp[2,6]
   + 9.31914e-06 tp[2,7] + 9.31914e-06 tp[2,8] + 9.31914e-06 tp[2,9]
   + 9.31914e-06 tp[2,10] + 9.31914e-06 tp[2,11] + 9.31914e-06 tp[2,12]
   + 9.31914e-06 tp[3,1] + 9.31914e-06 tp[3,2] + 9.31914e-06 tp[3,3]
   + 9.31914e-06 tp[3,4] + 9.31914e-06 tp[3,5] + 9.31914e-06 tp[3,6]
   + 9.31914e-06 tp[3,7] + 9.31914e-06 tp[3,8] + 9.31914e-06 tp[3,9]
   + 9.31914e-06 tp[3,10] + 9.31914e-06 tp[3,11] + 9.31914e-06 tp[3,12]
   + 9.31914e-06 tp[4,1] + 9.31914e-06 tp[4,2] + 9.31914e-06 tp[4,3]
   + 9.31914e-06 tp[4,4] + 9.31914e-06 tp[4,5] + 9.31914e-06 tp[4,6]
   + 9.31914e-06 tp[4,7] + 9.31914e-06 tp[4,8] + 9.31914e-06 tp[4,9]
   + 9.31914e-06 tp[4,10] + 9.31914e-06 tp[4,11] + 9.31914e-06 tp[4,12]
   + 9.31914e-06 tp[5,1] + 9.31914e-06 tp[5,2] + 9.31914e-06 tp[5,3]
   + 9.31914e-06 tp[5,4] + 9.31914e-06 tp[5,5] + 9.31914e-06 tp[5,6]
   + 9.31914e-06 tp[5,7] + 9.31914e-06 tp[5,8] + 9.31914e-06 tp[5,9]
   + 9.31914e-06 tp[5,10] + 9.31914e-06 tp[5,11] + 9.31914e-06 tp[5,12]
   + 9.31914e-06 tp[6,1] + 9.31914e-06 tp[6,2] + 9.31914e-06 tp[6,3]
   + 9.31914e-06 tp[6,4] + 9.31914e-06 tp[6,5] + 9.31914e-06 tp[6,6]
   + 9.31914e-06 tp[6,7] + 9.31914e-06 tp[6,8] + 9.31914e-06 tp[6,9]
   + 9.31914e-06 tp[6,10] + 9.31914e-06 tp[6,11] + 9.31914e-06 tp[6,12]
   + 9.31914e-06 tp[7,1] + 9.31914e-06 tp[7,2] + 9.31914e-06 tp[7,3]
   + 9.31914e-06 tp[7,4] + 9.31914e-06 tp[7,5] + 9.31914e-06 tp[7,6]
   + 9.31914e-06 tp[7,7] + 9.31914e-06 tp[7,8] + 9.31914e-06 tp[7,9]
   + 9.31914e-06 tp[7,10] + 9.31914e-06 tp[7,11] + 9.31914e-06 tp[7,12]
   + 9.31914e-06 tp[8,1] + 9.31914e-06 tp[8,2] + 9.31914e-06 tp[8,3]
   + 9.31914e-06 tp[8,4] + 9.31914e-06 tp[8,5] + 9.31914e-06 tp[8,6]
   + 9.31914e-06 tp[8,7] + 9.31914e-06 tp[8,8] + 9.31914e-06 tp[8,9]
   + 9.31914e-06 tp[8,10] + 9.31914e-06 tp[8,11] + 9.31914e-06 tp[8,12]
   + 9.31914e-06 tp[9,1] + 9.31914e-06 tp[9,2] + 9.31914e-06 tp[9,3]
   + 9.31914e-06 tp[9,4] + 9.31914e-06 tp[9,5] + 9.31914e-06 tp[9,6]
   + 9.31914e-06 tp[9,7] + 9.31914e-06 tp[9,8] + 9.31914e-06 tp[9,9]
   + 9.31914e-06 tp[9,10] + 9.31914e-06 tp[9,11] + 9.31914e-06 tp[9,12]
   + 9.31914e-06 tp[10,1] + 9.31914e-06 tp[10,2] + 9.31914e-06 tp[10,3]
   + 9.31914e-06 tp[10,4] + 9.31914e-06 tp[10,5] + 9.31914e-06 tp[10,6]
   + 9.31914e-06 tp[10,7] + 9.31914e-06 tp[10,8] + 9.31914e-06 tp[10,9]
   + 9.31914e-06 tp[10,10] + 9.31914e-06 tp[10,11] + 9.31914e-06 tp[10,12]
   + 9.31914e-06 tp[11,1] + 9.31914e-06 tp[11,2] + 9.31914e-06 tp[11,3]
   + 9.31914e-06 tp[11,4] + 9.31914e-06 tp[11,5] + 9.31914e-06 tp[11,6]
   + 9.31914e-06 tp[11,7] + 9.31914e-06 tp[11,8] + 9.31914e-06 tp[11,9]
   + 9.31914e-06 tp[11,10] + 9.31914e-06 tp[11,11] + 9.31914e-06 tp[11,12]
   + 9.31914e-06 tp[12,1] + 9.31914e-06 tp[12,2] + 9.31914e-06 tp[12,3]
   + 9.31914e-06 tp[12,4] + 9.31914e-06 tp[12,5] + 9.31914e-06 tp[12,6]
   + 9.31914e-06 tp[12,7] + 9.31914e-06 tp[12,8] + 9.31914e-06 tp[12,9]
   + 9.31914e-06 tp[12,10] + 9.31914e-06 tp[12,11] + 9.31914e-06 tp[12,12]
   + 9.31914e-06 tn[1,1] + 9.31914e-06 tn[1,2] + 9.31914e-06 tn[1,3]
   + 9.31914e-06 tn[1,4] + 9.31914e-06 tn[1,5] + 9.31914e-06 tn[1,6]
   + 9.31914e-06 tn[1,7] + 9.31914e-06 tn[1,8] + 9.31914e-06 tn[1,9]
   + 9.31914e-06 tn[1,10] + 9.31914e-06 tn[1,11] + 9.31914e-06 tn[1,12]
   + 9.31914e-06 tn[2,1] + 9.31914e-06 tn[2,2] + 9.31914e-06 tn[2,3]
   + 9.31914e-06 tn[2,4] + 9.31914e-06 tn[2,5] + 9.31914e-06 tn[2,6]
   + 9.31914e-06 tn[2,7] + 9.31914e-06 tn[2,8] + 9.31914e-06 tn[2,9]
   + 9.31914e-06 tn[2,10] + 9.31914e-06 tn[2,11] + 9.31914e-06 tn[2,12]
   + 9.31914e-06 tn[3,1] + 9.31914e-06 tn[3,2] + 9.31914e-06 tn[3,3]
   + 9.31914e-06 tn[3,4] + 9.31914e-06 tn[3,5] + 9.31914e-06 tn[3,6]
   + 9.31914e-06 tn[3,7] + 9.31914e-06 tn[3,8] + 9.31914e-06 tn[3,9]
   + 9.31914e-06 tn[3,10] + 9.31914e-06 tn[3,11] + 9.31914e-06 tn[3,12]
   + 9.31914e-06 tn[4,1] + 9.31914e-06 tn[4,2] + 9.31914e-06 tn[4,3]
   + 9.31914e-06 tn[4,4] + 9.31914e-06 tn[4,5] + 9.31914e-06 tn[4,6]
   + 9.31914e-06 tn[4,7] + 9.31914e-06 tn[4,8] + 9.31914e-06 tn[4,9]
   + 9.31914e-06 tn[4,10] + 9.31914e-06 tn[4,11] + 9.31914e-06 tn[4,12]
   + 9.31914e-06 tn[5,1] + 9.31914e-06 tn[5,2] + 9.31914e-06 tn[5,3]
   + 9.31914e-06 tn[5,4] + 9.31914e-06 tn[5,5] + 9.31914e-06 tn[5,6]
   + 9.31914e-06 tn[5,7] + 9.31914e-06 tn[5,8] + 9.31914e-06 tn[5,9]
   + 9.31914e-06 tn[5,10] + 9.31914e-06 tn[5,11] + 9.31914e-06 tn[5,12]
   + 9.31914e-06 tn[6,1] + 9.31914e-06 tn[6,2] + 9.31914e-06 tn[6,3]
   + 9.31914e-06 tn[6,4] + 9.31914e-06 tn[6,5] + 9.31914e-06 tn[6,6]
   + 9.31914e-06 tn[6,7] + 9.31914e-06 tn[6,8] + 9.31914e-06 tn[6,9]
   + 9.31914e-06 tn[6,10] + 9.31914e-06 tn[6,11] + 9.31914e-06 tn[6,12]
   + 9.31914e-06 tn[7,1] + 9.31914e-06 tn[7,2] + 9.31914e-06 tn[7,3]
   + 9.31914e-06 tn[7,4] + 9.31914e-06 tn[7,5] + 9.31914e-06 tn[7,6]
   + 9.31914e-06 tn[7,7] + 9.31914e-06 tn[7,8] + 9.31914e-06 tn[7,9]
   + 9.31914e-06 tn[7,10] + 9.31914e-06 tn[7,11] + 9.31914e-06 tn[7,12]
   + 9.31914e-06 tn[8,1] + 9.31914e-06 tn[8,2] + 9.31914e-06 tn[8,3]
   + 9.31914e-06 tn[8,4] + 9.31914e-06 tn[8,5] + 9.31914e-06 tn[8,6]
   + 9.31914e-06 tn[8,7] + 9.31914e-06 tn[8,8] + 9.31914e-06 tn[8,9]
   + 9.31914e-06 tn[8,10] + 9.31914e-06 tn[8,11] + 9.31914e-06 tn[8,12]
   + 9.31914e-06 tn[9,1] + 9.31914e-06 tn[9,2] + 9.31914e-06 tn[9,3]
   + 9.31914e-06 tn[9,4] + 9.31914e-06 tn[9,5] + 9.31914e-06 tn[9,6]
   + 9.31914e-06 tn[9,7] + 9.31914e-06 tn[9,8] + 9.31914e-06 tn[9,9]
   + 9.31914e-06 tn[9,10] + 9.31914e-06 tn[9,11] + 9.31914e-06 tn[9,12]
   + 9.31914e-06 tn[10,1] + 9.31914e-06 tn[10,2] + 9.31914e-06 tn[10,3]
   + 9.31914e-06 tn[10,4] + 9.31914e-06 tn[10,5] + 9.31914e-06 tn[10,6]
   + 9.31914e-06 tn[10,7] + 9.31914e-06 tn[10,8] + 9.31914e-06 tn[10,9]
   + 9.31914e-06 tn[10,10] + 9.31914e-06 tn[10,11] + 9.31914e-06 tn[10,12]
   + 9.31914e-06 tn[11,1] + 9.31914e-06 tn[11,2] + 9.31914e-06 tn[11,3]
   + 9.31914e-06 tn[11,4] + 9.31914e-06 tn[11,5] + 9.31914e-06 tn[11,6]
   + 9.31914e-06 tn[11,7] + 9.31914e-06 tn[11,8] + 9.31914e-06 tn[11,9]
   + 9.31914e-06 tn[11,10] + 9.31914e-06 tn[11,11] + 9.31914e-06 tn[11,12]
   + 9.31914e-06 tn[12,1] + 9.31914e-06 tn[12,2] + 9.31914e-06 tn[12,3]
   + 9.31914e-06 tn[12,4] + 9.31914e-06 tn[12,5] + 9.31914e-06 tn[12,6]
   + 9.31914e-06 tn[12,7] + 9.31914e-06 tn[12,8] + 9.31914e-06 tn[12,9]
   + 9.31914e-06 tn[12,10] + 9.31914e-06 tn[12,11] + 9.31914e-06 tn[12,12]
   + 54179.51501859682 Constant
Subject To
 linear[1,1]: tp[1,1] - tn[1,1] = 0
 linear[1,2]: 881.3319792613 y[2,1] - 949.8726881925 y[3,1]
   - 949.8726881925 y[4,1] + 960.0489082969 y[5,1] + tp[1,2] - tn[1,2] = 0
 linear[1,3]: 8.4422790293439925e+06 y[2,1] - 9.0988304833225161e+06 y[3,1]
   - 9.0988304833225161e+06 y[4,1] + 9.1963084925760049e+06 y[5,1]
   + tp[1,3] - tn[1,3] = 0
 linear[1,4]: - 2.6573427671309444e+06 y[1,1]
   + 2.4976948292265241e+06 y[2,1] + 6.00703e-08 y[5,1] + tp[1,4] - tn[1,4]
   = 0
 linear[1,5]: - 4.04194e-07 y[2,1] + 6.415046805239886e+06 y[5,1]
   - 5.7627715298914798e+06 y[6,1] + tp[1,5] - tn[1,5] = 0
 linear[1,6]: 3.2485896755571519e+06 y[2,1] - 3.5012307298806347e+06 y[3,1]
   - 3.5012307298806347e+06 y[4,1] + 3.5387402759823734e+06 y[5,1]
   + tp[1,6] - tn[1,6] = 0
 linear[1,7]: - 3.6887743281204123e+06 y[1,1]
   + 3.4671600064139543e+06 y[2,1] + 3.7768324052400044e+06 y[5,1]
   - 3.3928080213398552e+06 y[6,1] + tp[1,7] - tn[1,7] = 0
 linear[1,8]: 6.61239e-08 y[2,1] - 5.48549e-07 y[5,1] + tp[1,8] - tn[1,8]
   = 0
 linear[1,9]: 412463.3662942884 y[2,1] - 444540.418226862 y[3,1]
   - 444540.418226862 y[4,1] + 449302.8890829492 y[5,1] + tp[1,9] - tn[1,9]
   = 0
 linear[1,10]: 3.1948284248222127e+06 y[2,1] - 3.443288495881137e+06 y[3,1]
   - 3.443288495881137e+06 y[4,1] + 3.4801772925762623e+06 y[5,1]
   + tp[1,10] - tn[1,10] = 0
 linear[1,11]: - 7.972965966448484e+06 y[1,1]
   + 7.4939658196588345e+06 y[2,1] + 8.1632958672485407e+06 y[5,1]
   - 7.3332604487680066e+06 y[6,1] + tp[1,11] - tn[1,11] = 0
 linear[1,12]: - 2.1697569382994999e+06 y[1,1]
   + 2.0394022000106482e+06 y[2,1] - 2.5332e-07 y[5,1] + tp[1,12]
   - tn[1,12] = 0
 linear[2,1]: - 881.3319792613 y[2,1] + 949.8726881925 y[3,1]
   + 949.8726881925 y[4,1] - 960.0489082969 y[5,1] + tp[2,1] - tn[2,1] = 0
 linear[2,2]: tp[2,2] - tn[2,2] = 0
 linear[2,3]: - 4.748e-07 y[3,1] - 4.748e-07 y[4,1] + tp[2,3] - tn[2,3]
   = 0
 linear[2,4]: - 403.5448393517 y[1,1] + 408.798663377 y[3,1]
   + 408.798663377 y[4,1] - 413.178224163 y[5,1] + tp[2,4] - tn[2,4] = 0
 linear[2,5]: - 894.3143941419 y[2,1] + 963.8647384210001 y[3,1]
   + 963.8647384210001 y[4,1] - 875.136147288 y[6,1] + tp[2,5] - tn[2,5]
   = 0
 linear[2,6]: - 1.827e-07 y[3,1] - 1.827e-07 y[4,1] + tp[2,6] - tn[2,6]
   = 0
 linear[2,7]: - 560.1783338072 y[1,1] + 567.471397927 y[3,1]
   + 567.471397927 y[4,1] - 515.232805063 y[6,1] + tp[2,7] - tn[2,7] = 0
 linear[2,8]: - 728.3536265968 y[2,1] + 784.9972922010001 y[3,1]
   + 784.9972922010001 y[4,1] - 793.4071615721 y[5,1] + tp[2,8] - tn[2,8]
   = 0
 linear[2,9]: - 2.32e-08 y[3,1] - 2.32e-08 y[4,1] + tp[2,9] - tn[2,9] = 0
 linear[2,10]: - 1.797e-07 y[3,1] - 1.797e-07 y[4,1] + tp[2,10] - tn[2,10]
   = 0
 linear[2,11]: - 1210.776912141 y[1,1] + 1226.5402380715 y[3,1]
   + 1226.5402380715 y[4,1] - 1113.6310476489 y[6,1] + tp[2,11] - tn[2,11]
   = 0
 linear[2,12]: - 329.4999147 y[1,1] + 333.789734317 y[3,1]
   + 333.789734317 y[4,1] - 337.365705968 y[5,1] + tp[2,12] - tn[2,12] = 0
 linear[3,1]: - 8.4422790293439925e+06 y[2,1]
   + 9.0988304833225161e+06 y[3,1] + 9.0988304833225161e+06 y[4,1]
   - 9.1963084925760049e+06 y[5,1] + tp[3,1] - tn[3,1] = 0
 linear[3,2]: 4.748e-07 y[3,1] + 4.748e-07 y[4,1] + tp[3,2] - tn[3,2] = 0
 linear[3,3]: tp[3,3] - tn[3,3] = 0
 linear[3,4]: - 3.8655560161499339e+06 y[1,1]
   + 3.9158823978338661e+06 y[3,1] + 3.9158823978338661e+06 y[4,1]
   - 3.9578342092573768e+06 y[5,1] + tp[3,4] - tn[3,4] = 0
 linear[3,5]: - 8.5666375814852603e+06 y[2,1]
   + 9.2328603325073719e+06 y[3,1] + 9.2328603325073719e+06 y[4,1]
   - 8.3829291548717516e+06 y[6,1] + tp[3,5] - tn[3,5] = 0
 linear[3,6]: 2.8871e-08 y[3,1] + 2.8871e-08 y[4,1] + tp[3,6] - tn[3,6]
   = 0
 linear[3,7]: - 5.3659482595391693e+06 y[1,1]
   + 5.4358085226105964e+06 y[3,1] + 5.4358085226105964e+06 y[4,1]
   - 4.9354150396984769e+06 y[6,1] + tp[3,7] - tn[3,7] = 0
 linear[3,8]: - 6.9768993891707473e+06 y[2,1]
   + 7.5194890645772405e+06 y[3,1] + 7.5194890645772405e+06 y[4,1]
   - 7.6000472006991459e+06 y[5,1] + tp[3,8] - tn[3,8] = 0
 linear[3,9]: - 2.64263e-08 y[3,1] - 2.64263e-08 y[4,1] + tp[3,9] - tn[3,9]
   = 0
 linear[3,10]: - 1.95578e-07 y[3,1] - 1.95578e-07 y[4,1] + tp[3,10]
   - tn[3,10] = 0
 linear[3,11]: - 1.1598032041398639e+07 y[1,1]
   + 1.1749028944524122e+07 y[3,1] + 1.1749028944524122e+07 y[4,1]
   - 1.0667471805428812e+07 y[6,1] + tp[3,11] - tn[3,11] = 0
 linear[3,12]: - 3.1562796829112996e+06 y[1,1]
   + 3.1973718661212302e+06 y[3,1] + 3.1973718661212302e+06 y[4,1]
   - 3.2316260974674718e+06 y[5,1] + tp[3,12] - tn[3,12] = 0
 linear[4,1]: 2.6573427671309444e+06 y[1,1] - 2.4976948292265241e+06 y[2,1]
   - 6.00703e-08 y[5,1] + tp[4,1] - tn[4,1] = 0
 linear[4,2]: 403.5448393517 y[1,1] - 408.798663377 y[3,1]
   - 408.798663377 y[4,1] + 413.178224163 y[5,1] + tp[4,2] - tn[4,2] = 0
 linear[4,3]: 3.8655560161499339e+06 y[1,1] - 3.9158823978338661e+06 y[3,1]
   - 3.9158823978338661e+06 y[4,1] + 3.9578342092573768e+06 y[5,1]
   + tp[4,3] - tn[4,3] = 0
 linear[4,4]: tp[4,4] - tn[4,4] = 0
 linear[4,5]: 2.696486616548059e+06 y[1,1] - 2.5344869929981446e+06 y[2,1]
   + 2.7608568938571657e+06 y[5,1] - 2.4801358414141918e+06 y[6,1]
   + tp[4,5] - tn[4,5] = 0
 linear[4,6]: 1.4874662778503662e+06 y[1,1] - 1.5068318737253938e+06 y[3,1]
   - 1.5068318737253938e+06 y[4,1] + 1.522974934264818e+06 y[5,1] + tp[4,6]
   - tn[4,6] = 0
 linear[4,7]: - 1.72295e-08 y[1,1] + 1.6254431338572418e+06 y[5,1]
   - 1.4601697695485421e+06 y[6,1] + tp[4,7] - tn[4,7] = 0
 linear[4,8]: 2.1960910157519514e+06 y[1,1] - 2.0641541777753313e+06 y[2,1]
   - 2.8545e-07 y[5,1] + tp[4,8] - tn[4,8] = 0
 linear[4,9]: 188858.9848165956 y[1,1] - 191317.7745261848 y[3,1]
   - 191317.7745261848 y[4,1] + 193367.408908284 y[5,1] + tp[4,9] - tn[4,9]
   = 0
 linear[4,10]: 1.4628500426499124e+06 y[1,1]
   - 1.4818951552508948e+06 y[3,1] - 1.4818951552508948e+06 y[4,1]
   + 1.497771062590875e+06 y[5,1] + tp[4,10] - tn[4,10] = 0
 linear[4,11]: - 8.89413e-08 y[1,1] + 3.5132544400579887e+06 y[5,1]
   - 3.1560303890369828e+06 y[6,1] + tp[4,11] - tn[4,11] = 0
 linear[4,12]: 3.38769e-08 y[1,1] - 1.30036e-07 y[5,1] + tp[4,12]
   - tn[4,12] = 0
 linear[5,1]: 4.04194e-07 y[2,1] - 6.415046805239886e+06 y[5,1]
   + 5.7627715298914798e+06 y[6,1] + tp[5,1] - tn[5,1] = 0
 linear[5,2]: 894.3143941419 y[2,1] - 963.8647384210001 y[3,1]
   - 963.8647384210001 y[4,1] + 875.136147288 y[6,1] + tp[5,2] - tn[5,2]
   = 0
 linear[5,3]: 8.5666375814852603e+06 y[2,1] - 9.2328603325073719e+06 y[3,1]
   - 9.2328603325073719e+06 y[4,1] + 8.3829291548717516e+06 y[6,1]
   + tp[5,3] - tn[5,3] = 0
 linear[5,4]: - 2.696486616548059e+06 y[1,1]
   + 2.5344869929981446e+06 y[2,1] - 2.7608568938571657e+06 y[5,1]
   + 2.4801358414141918e+06 y[6,1] + tp[5,4] - tn[5,4] = 0
 linear[5,5]: tp[5,5] - tn[5,5] = 0
 linear[5,6]: 3.2964428568070433e+06 y[2,1] - 3.5528054270406077e+06 y[3,1]
   - 3.5528054270406077e+06 y[4,1] + 3.2257518389035678e+06 y[6,1]
   + tp[5,6] - tn[5,6] = 0
 linear[5,7]: - 3.7431116264997106e+06 y[1,1]
   + 3.5182328265542346e+06 y[2,1] + 2.6077e-08 y[6,1] + tp[5,7] - tn[5,7]
   = 0
 linear[5,8]: 4.02331e-07 y[2,1] - 5.3015466536247721e+06 y[5,1]
   + 4.7624909135412956e+06 y[6,1] + tp[5,8] - tn[5,8] = 0
 linear[5,9]: 418539.1364584092 y[2,1] - 451088.6977360504 y[3,1]
   - 451088.6977360504 y[4,1] + 409563.716930784 y[6,1] + tp[5,9] - tn[5,9]
   = 0
 linear[5,10]: 3.2418896787643875e+06 y[2,1]
   - 3.4940096779768802e+06 y[3,1] - 3.4940096779768802e+06 y[4,1]
   + 3.1723685339190001e+06 y[6,1] + tp[5,10] - tn[5,10] = 0
 linear[5,11]: - 8.0904113269261615e+06 y[1,1]
   + 7.6043552933885762e+06 y[2,1] - 8.56817e-08 y[6,1] + tp[5,11]
   - tn[5,11] = 0
 linear[5,12]: - 2.2017184300253997e+06 y[1,1]
   + 2.0694435080443567e+06 y[2,1] - 2.2542776472781757e+06 y[5,1]
   + 2.0250650448244319e+06 y[6,1] + tp[5,12] - tn[5,12] = 0
 linear[6,1]: - 3.2485896755571519e+06 y[2,1]
   + 3.5012307298806347e+06 y[3,1] + 3.5012307298806347e+06 y[4,1]
   - 3.5387402759823734e+06 y[5,1] + tp[6,1] - tn[6,1] = 0
 linear[6,2]: 1.827e-07 y[3,1] + 1.827e-07 y[4,1] + tp[6,2] - tn[6,2] = 0
 linear[6,3]: - 2.8871e-08 y[3,1] - 2.8871e-08 y[4,1] + tp[6,3] - tn[6,3]
   = 0
 linear[6,4]: - 1.4874662778503662e+06 y[1,1]
   + 1.5068318737253938e+06 y[3,1] + 1.5068318737253938e+06 y[4,1]
   - 1.522974934264818e+06 y[5,1] + tp[6,4] - tn[6,4] = 0
 linear[6,5]: - 3.2964428568070433e+06 y[2,1]
   + 3.5528054270406077e+06 y[3,1] + 3.5528054270406077e+06 y[4,1]
   - 3.2257518389035678e+06 y[6,1] + tp[6,5] - tn[6,5] = 0
 linear[6,6]: tp[6,6] - tn[6,6] = 0
 linear[6,7]: - 2.0648173384133393e+06 y[1,1]
   + 2.0916995734776638e+06 y[3,1] + 2.0916995734776638e+06 y[4,1]
   - 1.8991481194622179e+06 y[6,1] + tp[6,7] - tn[6,7] = 0
 linear[6,8]: - 2.6847114676358048e+06 y[2,1]
   + 2.8935000200471394e+06 y[3,1] + 2.8935000200471394e+06 y[4,1]
   - 2.9244987975547607e+06 y[5,1] + tp[6,8] - tn[6,8] = 0
 linear[6,9]: - 1.15833e-08 y[3,1] - 1.15833e-08 y[4,1] + tp[6,9] - tn[6,9]
   = 0
 linear[6,10]: - 8.6613e-08 y[3,1] - 8.6613e-08 y[4,1] + tp[6,10]
   - tn[6,10] = 0
 linear[6,11]: - 4.4629236981517253e+06 y[1,1]
   + 4.5210273190850476e+06 y[3,1] + 4.5210273190850476e+06 y[4,1]
   - 4.1048440416338453e+06 y[6,1] + tp[6,11] - tn[6,11] = 0
 linear[6,12]: - 1.2145366855841998e+06 y[1,1]
   + 1.2303489611152299e+06 y[3,1] + 1.2303489611152299e+06 y[4,1]
   - 1.2435299921980479e+06 y[5,1] + tp[6,12] - tn[6,12] = 0
 linear[7,1]: 3.6887743281204123e+06 y[1,1] - 3.4671600064139543e+06 y[2,1]
   - 3.7768324052400044e+06 y[5,1] + 3.3928080213398552e+06 y[6,1]
   + tp[7,1] - tn[7,1] = 0
 linear[7,2]: 560.1783338072 y[1,1] - 567.471397927 y[3,1]
   - 567.471397927 y[4,1] + 515.232805063 y[6,1] + tp[7,2] - tn[7,2] = 0
 linear[7,3]: 5.3659482595391693e+06 y[1,1] - 5.4358085226105964e+06 y[3,1]
   - 5.4358085226105964e+06 y[4,1] + 4.9354150396984769e+06 y[6,1]
   + tp[7,3] - tn[7,3] = 0
 linear[7,4]: 1.72295e-08 y[1,1] - 1.6254431338572418e+06 y[5,1]
   + 1.4601697695485421e+06 y[6,1] + tp[7,4] - tn[7,4] = 0
 linear[7,5]: 3.7431116264997106e+06 y[1,1] - 3.5182328265542346e+06 y[2,1]
   - 2.6077e-08 y[6,1] + tp[7,5] - tn[7,5] = 0
 linear[7,6]: 2.0648173384133393e+06 y[1,1] - 2.0916995734776638e+06 y[3,1]
   - 2.0916995734776638e+06 y[4,1] + 1.8991481194622179e+06 y[6,1]
   + tp[7,6] - tn[7,6] = 0
 linear[7,7]: tp[7,7] - tn[7,7] = 0
 linear[7,8]: 3.0484904925787826e+06 y[1,1] - 2.8653431670318116e+06 y[2,1]
   - 3.1212637736246414e+06 y[5,1] + 2.8038969251528461e+06 y[6,1]
   + tp[7,8] - tn[7,8] = 0
 linear[7,9]: 262163.4602217696 y[1,1] - 265576.6143211048 y[3,1]
   - 265576.6143211048 y[4,1] + 241128.952769484 y[6,1] + tp[7,9] - tn[7,9]
   = 0
 linear[7,10]: 2.0306464600511002e+06 y[1,1]
   - 2.0570838181923148e+06 y[3,1] - 2.0570838181923148e+06 y[4,1]
   + 1.867718918353375e+06 y[6,1] + tp[7,10] - tn[7,10] = 0
 linear[7,11]: - 7.17118e-08 y[1,1] - 8.3819e-08 y[6,1] + tp[7,11]
   - tn[7,11] = 0
 linear[7,12]: 6.10016e-08 y[1,1] - 1.3271966872781119e+06 y[5,1]
   + 1.192248710915782e+06 y[6,1] + tp[7,12] - tn[7,12] = 0
 linear[8,1]: - 6.61239e-08 y[2,1] + 5.48549e-07 y[5,1] + tp[8,1] - tn[8,1]
   = 0
 linear[8,2]: 728.3536265968 y[2,1] - 784.9972922010001 y[3,1]
   - 784.9972922010001 y[4,1] + 793.4071615721 y[5,1] + tp[8,2] - tn[8,2]
   = 0
 linear[8,3]: 6.9768993891707473e+06 y[2,1] - 7.5194890645772405e+06 y[3,1]
   - 7.5194890645772405e+06 y[4,1] + 7.6000472006991459e+06 y[5,1]
   + tp[8,3] - tn[8,3] = 0
 linear[8,4]: - 2.1960910157519514e+06 y[1,1]
   + 2.0641541777753313e+06 y[2,1] + 2.8545e-07 y[5,1] + tp[8,4] - tn[8,4]
   = 0
 linear[8,5]: - 4.02331e-07 y[2,1] + 5.3015466536247721e+06 y[5,1]
   - 4.7624909135412956e+06 y[6,1] + tp[8,5] - tn[8,5] = 0
 linear[8,6]: 2.6847114676358048e+06 y[2,1] - 2.8935000200471394e+06 y[3,1]
   - 2.8935000200471394e+06 y[4,1] + 2.9244987975547607e+06 y[5,1]
   + tp[8,6] - tn[8,6] = 0
 linear[8,7]: - 3.0484904925787826e+06 y[1,1]
   + 2.8653431670318116e+06 y[2,1] + 3.1212637736246414e+06 y[5,1]
   - 2.8038969251528461e+06 y[6,1] + tp[8,7] - tn[8,7] = 0
 linear[8,8]: tp[8,8] - tn[8,8] = 0
 linear[8,9]: 340869.4972473024 y[2,1] - 367378.7328763224 y[3,1]
   - 367378.7328763224 y[4,1] + 371314.5516157428 y[5,1] + tp[8,9]
   - tn[8,9] = 0
 linear[8,10]: 2.6402818964134003e+06 y[2,1]
   - 2.8456151852065525e+06 y[3,1] - 2.8456151852065525e+06 y[4,1]
   + 2.8761009606988626e+06 y[5,1] + tp[8,10] - tn[8,10] = 0
 linear[8,11]: - 6.5890479558713213e+06 y[1,1]
   + 6.1931908869525911e+06 y[2,1] + 6.7463410948475664e+06 y[5,1]
   - 6.0603801613053139e+06 y[6,1] + tp[8,11] - tn[8,11] = 0
 linear[8,12]: - 1.7931385357973999e+06 y[1,1]
   + 1.6854102919449953e+06 y[2,1] - 1.6531e-08 y[5,1] + tp[8,12]
   - tn[8,12] = 0
 linear[9,1]: - 412463.3662942884 y[2,1] + 444540.418226862 y[3,1]
   + 444540.418226862 y[4,1] - 449302.8890829492 y[5,1] + tp[9,1] - tn[9,1]
   = 0
 linear[9,2]: 2.32e-08 y[3,1] + 2.32e-08 y[4,1] + tp[9,2] - tn[9,2] = 0
 linear[9,3]: 2.64263e-08 y[3,1] + 2.64263e-08 y[4,1] + tp[9,3] - tn[9,3]
   = 0
 linear[9,4]: - 188858.9848165956 y[1,1] + 191317.7745261848 y[3,1]
   + 191317.7745261848 y[4,1] - 193367.408908284 y[5,1] + tp[9,4] - tn[9,4]
   = 0
 linear[9,5]: - 418539.1364584092 y[2,1] + 451088.6977360504 y[3,1]
   + 451088.6977360504 y[4,1] - 409563.716930784 y[6,1] + tp[9,5] - tn[9,5]
   = 0
 linear[9,6]: 1.15833e-08 y[3,1] + 1.15833e-08 y[4,1] + tp[9,6] - tn[9,6]
   = 0
 linear[9,7]: - 262163.4602217696 y[1,1] + 265576.6143211048 y[3,1]
   + 265576.6143211048 y[4,1] - 241128.952769484 y[6,1] + tp[9,7] - tn[9,7]
   = 0
 linear[9,8]: - 340869.4972473024 y[2,1] + 367378.7328763224 y[3,1]
   + 367378.7328763224 y[4,1] - 371314.5516157428 y[5,1] + tp[9,8]
   - tn[9,8] = 0
 linear[9,9]: tp[9,9] - tn[9,9] = 0
 linear[9,10]: 4.07454e-10 y[3,1] + 4.07454e-10 y[4,1] + tp[9,10]
   - tn[9,10] = 0
 linear[9,11]: - 566643.594881988 y[1,1] + 574020.8316147316 y[3,1]
   + 574020.8316147316 y[4,1] - 521179.3302996852 y[6,1] + tp[9,11]
   - tn[9,11] = 0
 linear[9,12]: - 154205.9600796 y[1,1] + 156213.5957140408 y[3,1]
   + 156213.5957140408 y[4,1] - 157887.150393024 y[5,1] + tp[9,12]
   - tn[9,12] = 0
 linear[10,1]: - 3.1948284248222127e+06 y[2,1]
   + 3.443288495881137e+06 y[3,1] + 3.443288495881137e+06 y[4,1]
   - 3.4801772925762623e+06 y[5,1] + tp[10,1] - tn[10,1] = 0
 linear[10,2]: 1.797e-07 y[3,1] + 1.797e-07 y[4,1] + tp[10,2] - tn[10,2]
   = 0
 linear[10,3]: 1.95578e-07 y[3,1] + 1.95578e-07 y[4,1] + tp[10,3]
   - tn[10,3] = 0
 linear[10,4]: - 1.4628500426499124e+06 y[1,1]
   + 1.4818951552508948e+06 y[3,1] + 1.4818951552508948e+06 y[4,1]
   - 1.497771062590875e+06 y[5,1] + tp[10,4] - tn[10,4] = 0
 linear[10,5]: - 3.2418896787643875e+06 y[2,1]
   + 3.4940096779768802e+06 y[3,1] + 3.4940096779768802e+06 y[4,1]
   - 3.1723685339190001e+06 y[6,1] + tp[10,5] - tn[10,5] = 0
 linear[10,6]: 8.6613e-08 y[3,1] + 8.6613e-08 y[4,1] + tp[10,6] - tn[10,6]
   = 0
 linear[10,7]: - 2.0306464600511002e+06 y[1,1]
   + 2.0570838181923148e+06 y[3,1] + 2.0570838181923148e+06 y[4,1]
   - 1.867718918353375e+06 y[6,1] + tp[10,7] - tn[10,7] = 0
 linear[10,8]: - 2.6402818964134003e+06 y[2,1]
   + 2.8456151852065525e+06 y[3,1] + 2.8456151852065525e+06 y[4,1]
   - 2.8761009606988626e+06 y[5,1] + tp[10,8] - tn[10,8] = 0
 linear[10,9]: - 4.07454e-10 y[3,1] - 4.07454e-10 y[4,1] + tp[10,9]
   - tn[10,9] = 0
 linear[10,10]: tp[10,10] - tn[10,10] = 0
 linear[10,11]: - 4.3890663065111246e+06 y[1,1]
   + 4.4462083645371767e+06 y[3,1] + 4.4462083645371767e+06 y[4,1]
   - 4.0369125477272626e+06 y[6,1] + tp[10,11] - tn[10,11] = 0
 linear[10,12]: - 1.1944371907875e+06 y[1,1]
   + 1.2099877873149507e+06 y[3,1] + 1.2099877873149507e+06 y[4,1]
   - 1.222950684134e+06 y[5,1] + tp[10,12] - tn[10,12] = 0
 linear[11,1]: 7.972965966448484e+06 y[1,1] - 7.4939658196588345e+06 y[2,1]
   - 8.1632958672485407e+06 y[5,1] + 7.3332604487680066e+06 y[6,1]
   + tp[11,1] - tn[11,1] = 0
 linear[11,2]: 1210.776912141 y[1,1] - 1226.5402380715 y[3,1]
   - 1226.5402380715 y[4,1] + 1113.6310476489 y[6,1] + tp[11,2] - tn[11,2]
   = 0
 linear[11,3]: 1.1598032041398639e+07 y[1,1]
   - 1.1749028944524122e+07 y[3,1] - 1.1749028944524122e+07 y[4,1]
   + 1.0667471805428812e+07 y[6,1] + tp[11,3] - tn[11,3] = 0
 linear[11,4]: 8.89413e-08 y[1,1] - 3.5132544400579887e+06 y[5,1]
   + 3.1560303890369828e+06 y[6,1] + tp[11,4] - tn[11,4] = 0
 linear[11,5]: 8.0904113269261615e+06 y[1,1]
   - 7.6043552933885762e+06 y[2,1] + 8.56817e-08 y[6,1] + tp[11,5]
   - tn[11,5] = 0
 linear[11,6]: 4.4629236981517253e+06 y[1,1]
   - 4.5210273190850476e+06 y[3,1] - 4.5210273190850476e+06 y[4,1]
   + 4.1048440416338453e+06 y[6,1] + tp[11,6] - tn[11,6] = 0
 linear[11,7]: 7.17118e-08 y[1,1] + 8.3819e-08 y[6,1] + tp[11,7] - tn[11,7]
   = 0
 linear[11,8]: 6.5890479558713213e+06 y[1,1]
   - 6.1931908869525911e+06 y[2,1] - 6.7463410948475664e+06 y[5,1]
   + 6.0603801613053139e+06 y[6,1] + tp[11,8] - tn[11,8] = 0
 linear[11,9]: 566643.594881988 y[1,1] - 574020.8316147316 y[3,1]
   - 574020.8316147316 y[4,1] + 521179.3302996852 y[6,1] + tp[11,9]
   - tn[11,9] = 0
 linear[11,10]: 4.3890663065111246e+06 y[1,1]
   - 4.4462083645371767e+06 y[3,1] - 4.4462083645371767e+06 y[4,1]
   + 4.0369125477272626e+06 y[6,1] + tp[11,10] - tn[11,10] = 0
 linear[11,11]: tp[11,11] - tn[11,11] = 0
 linear[11,12]: 1.73692e-07 y[1,1] - 2.8686205978459041e+06 y[5,1]
   + 2.5769422442595544e+06 y[6,1] + tp[11,12] - tn[11,12] = 0
 linear[12,1]: 2.1697569382994999e+06 y[1,1]
   - 2.0394022000106482e+06 y[2,1] + 2.5332e-07 y[5,1] + tp[12,1]
   - tn[12,1] = 0
 linear[12,2]: 329.4999147 y[1,1] - 333.789734317 y[3,1]
   - 333.789734317 y[4,1] + 337.365705968 y[5,1] + tp[12,2] - tn[12,2] = 0
 linear[12,3]: 3.1562796829112996e+06 y[1,1]
   - 3.1973718661212302e+06 y[3,1] - 3.1973718661212302e+06 y[4,1]
   + 3.2316260974674718e+06 y[5,1] + tp[12,3] - tn[12,3] = 0
 linear[12,4]: - 3.38769e-08 y[1,1] + 1.30036e-07 y[5,1] + tp[12,4]
   - tn[12,4] = 0
 linear[12,5]: 2.2017184300253997e+06 y[1,1]
   - 2.0694435080443567e+06 y[2,1] + 2.2542776472781757e+06 y[5,1]
   - 2.0250650448244319e+06 y[6,1] + tp[12,5] - tn[12,5] = 0
 linear[12,6]: 1.2145366855841998e+06 y[1,1]
   - 1.2303489611152299e+06 y[3,1] - 1.2303489611152299e+06 y[4,1]
   + 1.2435299921980479e+06 y[5,1] + tp[12,6] - tn[12,6] = 0
 linear[12,7]: - 6.10016e-08 y[1,1] + 1.3271966872781119e+06 y[5,1]
   - 1.192248710915782e+06 y[6,1] + tp[12,7] - tn[12,7] = 0
 linear[12,8]: 1.7931385357973999e+06 y[1,1]
   - 1.6854102919449953e+06 y[2,1] + 1.6531e-08 y[5,1] + tp[12,8]
   - tn[12,8] = 0
 linear[12,9]: 154205.9600796 y[1,1] - 156213.5957140408 y[3,1]
   - 156213.5957140408 y[4,1] + 157887.150393024 y[5,1] + tp[12,9]
   - tn[12,9] = 0
 linear[12,10]: 1.1944371907875e+06 y[1,1] - 1.2099877873149507e+06 y[3,1]
   - 1.2099877873149507e+06 y[4,1] + 1.222950684134e+06 y[5,1] + tp[12,10]
   - tn[12,10] = 0
 linear[12,11]: - 1.73692e-07 y[1,1] + 2.8686205978459041e+06 y[5,1]
   - 2.5769422442595544e+06 y[6,1] + tp[12,11] - tn[12,11] = 0
 linear[12,12]: tp[12,12] - tn[12,12] = 0
 Total_time: 12954 y[1,1] + 12888 y[2,1] + 10697 y[3,1] + 17061 y[4,1]
   + 16753 y[5,1] + 11958 y[6,1] <= 85782
 visit[1]: y[2,1] + y[5,1] = 1
 visit[2]: y[3,1] + y[4,1] = 1
 visit[3]: y[3,1] + y[4,1] = 1
 visit[4]: y[1,1] + y[5,1] = 1
 visit[5]: y[2,1] + y[6,1] = 1
 visit[6]: y[3,1] + y[4,1] = 1
 visit[7]: y[1,1] + y[6,1] = 1
 visit[8]: y[2,1] + y[5,1] = 1
 visit[9]: y[3,1] + y[4,1] = 1
 visit[10]: y[3,1] + y[4,1] = 1
 visit[11]: y[1,1] + y[6,1] = 1
 visit[12]: y[1,1] + y[5,1] = 1
 vehicle: y[1,1] + y[2,1] + y[3,1] + y[4,1] + y[5,1] + y[6,1] <= 3
 Inv: 2503.9999999999 y[1,1] + 2504 y[2,1] + 2503.9999999999 y[3,1]
   + 2503.9999999999 y[4,1] + 2504 y[5,1] + 2503.9999999999 y[6,1]
   <= 37563
Bounds
 Constant = 1
End
